(declare-fun Config_r2_RouteFilterList_default_ips__Line1__0_0_0_0__ip
             ()
             (_ BitVec 32))
(declare-fun Config_r2_RouteFilterList_default_ips__Line1__0_0_0_0__mask
             ()
             (_ BitVec 32))
(declare-fun Config_r2_RouteFilterList_default_ips__Line1__0_0_0_0__length
             ()
             Int)
(declare-fun Config_r2_RouteFilterList_default_ips__Line1__0_0_0_0__prefix_range_start
             ()
             Int)
(declare-fun Config_r2_RouteFilterList_default_ips__Line1__0_0_0_0__prefix_range_end
             ()
             Int)
(declare-fun Config_r2_RouteFilterList_default_ips__Line1__0_0_0_0__action
             ()
             Bool)
(declare-fun Config_r2_RouteFilterList_isp2_network__Line1__198_51_100_0__ip
             ()
             (_ BitVec 32))
(declare-fun Config_r2_RouteFilterList_isp2_network__Line1__198_51_100_0__mask
             ()
             (_ BitVec 32))
(declare-fun Config_r2_RouteFilterList_isp2_network__Line1__198_51_100_0__length
             ()
             Int)
(declare-fun Config_r2_RouteFilterList_isp2_network__Line1__198_51_100_0__prefix_range_start
             ()
             Int)
(declare-fun Config_r2_RouteFilterList_isp2_network__Line1__198_51_100_0__prefix_range_end
             ()
             Int)
(declare-fun Config_r2_RouteFilterList_isp2_network__Line1__198_51_100_0__action
             ()
             Bool)
(declare-fun Config_r2_CommunityList_isp1_community__Line1__action () Bool)
(declare-fun Config_r2_CommunityList_isp1_community__Line1__community () Bool)
(declare-fun Config_r2_CommunityList_isp2_community__Line1__action () Bool)
(declare-fun Config_r2_CommunityList_isp2_community__Line1__community () Bool)
(declare-fun Config_r2_RoutingPolicy_R2_IN_FROM_ISP2__Line1__add_community_500_200_community
             ()
             Bool)
(declare-fun Config_r2_RoutingPolicy_R2_OUT_TO_R3__Line1__prepend_aspath_cost
             ()
             Int)
(declare-fun Config_r3_RouteFilterList_default_ips__Line1__0_0_0_0__ip
             ()
             (_ BitVec 32))
(declare-fun Config_r3_RouteFilterList_default_ips__Line1__0_0_0_0__mask
             ()
             (_ BitVec 32))
(declare-fun Config_r3_RouteFilterList_default_ips__Line1__0_0_0_0__length
             ()
             Int)
(declare-fun Config_r3_RouteFilterList_default_ips__Line1__0_0_0_0__prefix_range_start
             ()
             Int)
(declare-fun Config_r3_RouteFilterList_default_ips__Line1__0_0_0_0__prefix_range_end
             ()
             Int)
(declare-fun Config_r3_RouteFilterList_default_ips__Line1__0_0_0_0__action
             ()
             Bool)
(declare-fun Config_r3_RouteFilterList_private_ips__Line1__192_168_0_0__ip
             ()
             (_ BitVec 32))
(declare-fun Config_r3_RouteFilterList_private_ips__Line1__192_168_0_0__mask
             ()
             (_ BitVec 32))
(declare-fun Config_r3_RouteFilterList_private_ips__Line1__192_168_0_0__length
             ()
             Int)
(declare-fun Config_r3_RouteFilterList_private_ips__Line1__192_168_0_0__prefix_range_start
             ()
             Int)
(declare-fun Config_r3_RouteFilterList_private_ips__Line1__192_168_0_0__prefix_range_end
             ()
             Int)
(declare-fun Config_r3_RouteFilterList_private_ips__Line1__192_168_0_0__action
             ()
             Bool)
(declare-fun Config_r1_RouteFilterList_default_ips__Line1__0_0_0_0__ip
             ()
             (_ BitVec 32))
(declare-fun Config_r1_RouteFilterList_default_ips__Line1__0_0_0_0__mask
             ()
             (_ BitVec 32))
(declare-fun Config_r1_RouteFilterList_default_ips__Line1__0_0_0_0__length
             ()
             Int)
(declare-fun Config_r1_RouteFilterList_default_ips__Line1__0_0_0_0__prefix_range_start
             ()
             Int)
(declare-fun Config_r1_RouteFilterList_default_ips__Line1__0_0_0_0__prefix_range_end
             ()
             Int)
(declare-fun Config_r1_RouteFilterList_default_ips__Line1__0_0_0_0__action
             ()
             Bool)
(declare-fun Config_r1_RouteFilterList_isp1_network__Line1__192_0_2_0__ip
             ()
             (_ BitVec 32))
(declare-fun Config_r1_RouteFilterList_isp1_network__Line1__192_0_2_0__mask
             ()
             (_ BitVec 32))
(declare-fun Config_r1_RouteFilterList_isp1_network__Line1__192_0_2_0__length
             ()
             Int)
(declare-fun Config_r1_RouteFilterList_isp1_network__Line1__192_0_2_0__prefix_range_start
             ()
             Int)
(declare-fun Config_r1_RouteFilterList_isp1_network__Line1__192_0_2_0__prefix_range_end
             ()
             Int)
(declare-fun Config_r1_RouteFilterList_isp1_network__Line1__192_0_2_0__action
             ()
             Bool)
(declare-fun Config_r1_RouteFilterList_isp1_network__Line2__198_51_100_0__ip
             ()
             (_ BitVec 32))
(declare-fun Config_r1_RouteFilterList_isp1_network__Line2__198_51_100_0__mask
             ()
             (_ BitVec 32))
(declare-fun Config_r1_RouteFilterList_isp1_network__Line2__198_51_100_0__length
             ()
             Int)
(declare-fun Config_r1_RouteFilterList_isp1_network__Line2__198_51_100_0__prefix_range_start
             ()
             Int)
(declare-fun Config_r1_RouteFilterList_isp1_network__Line2__198_51_100_0__prefix_range_end
             ()
             Int)
(declare-fun Config_r1_RouteFilterList_isp1_network__Line2__198_51_100_0__action
             ()
             Bool)
(declare-fun Config_r1_CommunityList_isp2_community__Line1__action () Bool)
(declare-fun Config_r1_CommunityList_isp2_community__Line1__community () Bool)
(declare-fun Config_r1_RoutingPolicy_R1_IN_FROM_ISP1__Line1__add_community_400_100_community
             ()
             Bool)
(assert (= Config_r2_RouteFilterList_default_ips__Line1__0_0_0_0__ip #x00000000))
(assert (= Config_r2_RouteFilterList_default_ips__Line1__0_0_0_0__mask #x00000000))
(assert (= Config_r2_RouteFilterList_default_ips__Line1__0_0_0_0__length 0))
(assert (= Config_r2_RouteFilterList_default_ips__Line1__0_0_0_0__prefix_range_start 0))
(assert (= Config_r2_RouteFilterList_default_ips__Line1__0_0_0_0__prefix_range_end 32))
(assert (>= Config_r2_RouteFilterList_default_ips__Line1__0_0_0_0__prefix_range_start
    Config_r2_RouteFilterList_default_ips__Line1__0_0_0_0__length))
(assert (>= Config_r2_RouteFilterList_default_ips__Line1__0_0_0_0__prefix_range_end
    Config_r2_RouteFilterList_default_ips__Line1__0_0_0_0__length))
(assert (= Config_r2_RouteFilterList_default_ips__Line1__0_0_0_0__action true))
(assert (= Config_r2_RouteFilterList_isp2_network__Line1__198_51_100_0__ip #xc6336400))
(assert (= Config_r2_RouteFilterList_isp2_network__Line1__198_51_100_0__mask #xffffff00))
(assert (= Config_r2_RouteFilterList_isp2_network__Line1__198_51_100_0__length 24))
(assert (= Config_r2_RouteFilterList_isp2_network__Line1__198_51_100_0__prefix_range_start
   24))
(assert (= Config_r2_RouteFilterList_isp2_network__Line1__198_51_100_0__prefix_range_end
   32))
(assert (>= Config_r2_RouteFilterList_isp2_network__Line1__198_51_100_0__prefix_range_start
    Config_r2_RouteFilterList_isp2_network__Line1__198_51_100_0__length))
(assert (>= Config_r2_RouteFilterList_isp2_network__Line1__198_51_100_0__prefix_range_end
    Config_r2_RouteFilterList_isp2_network__Line1__198_51_100_0__length))
(assert (= Config_r2_RouteFilterList_isp2_network__Line1__198_51_100_0__action true))
(assert (= Config_r2_CommunityList_isp1_community__Line1__action true))
(assert (= Config_r2_CommunityList_isp1_community__Line1__community true))
(assert (= Config_r2_CommunityList_isp2_community__Line1__action true))
(assert (= Config_r2_CommunityList_isp2_community__Line1__community true))
(assert (= Config_r2_RoutingPolicy_R2_IN_FROM_ISP2__Line1__add_community_500_200_community
   true))
(assert (= Config_r2_RoutingPolicy_R2_OUT_TO_R3__Line1__prepend_aspath_cost 1))
(assert (= Config_r3_RouteFilterList_default_ips__Line1__0_0_0_0__ip #x00000000))
(assert (= Config_r3_RouteFilterList_default_ips__Line1__0_0_0_0__mask #x00000000))
(assert (= Config_r3_RouteFilterList_default_ips__Line1__0_0_0_0__length 0))
(assert (= Config_r3_RouteFilterList_default_ips__Line1__0_0_0_0__prefix_range_start 0))
(assert (= Config_r3_RouteFilterList_default_ips__Line1__0_0_0_0__prefix_range_end 32))
(assert (>= Config_r3_RouteFilterList_default_ips__Line1__0_0_0_0__prefix_range_start
    Config_r3_RouteFilterList_default_ips__Line1__0_0_0_0__length))
(assert (>= Config_r3_RouteFilterList_default_ips__Line1__0_0_0_0__prefix_range_end
    Config_r3_RouteFilterList_default_ips__Line1__0_0_0_0__length))
(assert (= Config_r3_RouteFilterList_default_ips__Line1__0_0_0_0__action true))
(assert (= Config_r3_RouteFilterList_private_ips__Line1__192_168_0_0__ip #xc0a80000))
(assert (= Config_r3_RouteFilterList_private_ips__Line1__192_168_0_0__mask #xffff0000))
(assert (= Config_r3_RouteFilterList_private_ips__Line1__192_168_0_0__length 16))
(assert (= Config_r3_RouteFilterList_private_ips__Line1__192_168_0_0__prefix_range_start
   16))
(assert (= Config_r3_RouteFilterList_private_ips__Line1__192_168_0_0__prefix_range_end
   32))
(assert (>= Config_r3_RouteFilterList_private_ips__Line1__192_168_0_0__prefix_range_start
    Config_r3_RouteFilterList_private_ips__Line1__192_168_0_0__length))
(assert (>= Config_r3_RouteFilterList_private_ips__Line1__192_168_0_0__prefix_range_end
    Config_r3_RouteFilterList_private_ips__Line1__192_168_0_0__length))
(assert (= Config_r3_RouteFilterList_private_ips__Line1__192_168_0_0__action true))
(assert (= Config_r1_RouteFilterList_default_ips__Line1__0_0_0_0__ip #x00000000))
(assert (= Config_r1_RouteFilterList_default_ips__Line1__0_0_0_0__mask #x00000000))
(assert (= Config_r1_RouteFilterList_default_ips__Line1__0_0_0_0__length 0))
(assert (= Config_r1_RouteFilterList_default_ips__Line1__0_0_0_0__prefix_range_start 0))
(assert (= Config_r1_RouteFilterList_default_ips__Line1__0_0_0_0__prefix_range_end 32))
(assert (>= Config_r1_RouteFilterList_default_ips__Line1__0_0_0_0__prefix_range_start
    Config_r1_RouteFilterList_default_ips__Line1__0_0_0_0__length))
(assert (>= Config_r1_RouteFilterList_default_ips__Line1__0_0_0_0__prefix_range_end
    Config_r1_RouteFilterList_default_ips__Line1__0_0_0_0__length))
(assert (= Config_r1_RouteFilterList_default_ips__Line1__0_0_0_0__action true))
(assert (= Config_r1_RouteFilterList_isp1_network__Line1__192_0_2_0__ip #xc0000200))
(assert (= Config_r1_RouteFilterList_isp1_network__Line1__192_0_2_0__mask #xffffff00))
(assert (= Config_r1_RouteFilterList_isp1_network__Line1__192_0_2_0__length 24))
(assert (= Config_r1_RouteFilterList_isp1_network__Line1__192_0_2_0__prefix_range_start
   24))
(assert (= Config_r1_RouteFilterList_isp1_network__Line1__192_0_2_0__prefix_range_end
   32))
(assert (>= Config_r1_RouteFilterList_isp1_network__Line1__192_0_2_0__prefix_range_start
    Config_r1_RouteFilterList_isp1_network__Line1__192_0_2_0__length))
(assert (>= Config_r1_RouteFilterList_isp1_network__Line1__192_0_2_0__prefix_range_end
    Config_r1_RouteFilterList_isp1_network__Line1__192_0_2_0__length))
(assert (= Config_r1_RouteFilterList_isp1_network__Line1__192_0_2_0__action true))
(assert (= Config_r1_RouteFilterList_isp1_network__Line2__198_51_100_0__ip #xc6336400))
(assert (= Config_r1_RouteFilterList_isp1_network__Line2__198_51_100_0__mask #xffffff00))
(assert (= Config_r1_RouteFilterList_isp1_network__Line2__198_51_100_0__length 24))
(assert (= Config_r1_RouteFilterList_isp1_network__Line2__198_51_100_0__prefix_range_start
   24))
(assert (= Config_r1_RouteFilterList_isp1_network__Line2__198_51_100_0__prefix_range_end
   32))
(assert (>= Config_r1_RouteFilterList_isp1_network__Line2__198_51_100_0__prefix_range_start
    Config_r1_RouteFilterList_isp1_network__Line2__198_51_100_0__length))
(assert (>= Config_r1_RouteFilterList_isp1_network__Line2__198_51_100_0__prefix_range_end
    Config_r1_RouteFilterList_isp1_network__Line2__198_51_100_0__length))
(assert (= Config_r1_RouteFilterList_isp1_network__Line2__198_51_100_0__action true))
(assert (= Config_r1_CommunityList_isp2_community__Line1__action true))
(assert (= Config_r1_CommunityList_isp2_community__Line1__community true))
(assert (= Config_r1_RoutingPolicy_R1_IN_FROM_ISP1__Line1__add_community_400_100_community
   true))

